50

97 2 195
97 22 372
90 11 189
89 22 384
89 27 369
89 7 284
85 3 305
83 16 305
82 8 459
81 0 471
77 7 251
76 10 253
76 16 186
75 13 426
71 20 247
71 18 274
68 16 341
68 14 411
66 19 466
63 8 295
63 9 355
63 18 466
62 19 449
61 10 429
61 10 484
59 17 247
58 16 384
54 15 428
53 10 374
50 10 295
50 2 304
50 10 192
46 10 473
43 5 276
40 5 462
36 7 342
36 8 193
33 0 397
32 6 396
31 3 253
31 2 431
31 5 231
28 2 449
27 6 267
27 1 256
26 7 311
26 0 451
24 2 207
23 6 209
22 3 493
